p wcnf 40 60 328
4 -16 19 22 0
9 9 17 25 0
1 1 34 38 0
10 -33 35 40 0
10 20 -24 -26 0
1 -12 -30 32 0
3 -10 -20 -26 0
6 -2 9 -31 0
3 -33 35 -38 0
4 8 -33 35 0
5 5 -18 -27 0
1 -14 -27 -37 0
10 22 24 -26 0
2 -3 -22 24 0
3 10 11 39 0
10 1 -5 23 0
5 1 2 31 0
8 -3 24 26 0
1 9 17 25 0
4 3 30 32 0
10 -5 13 32 0
10 27 -36 37 0
10 -12 -30 32 0
4 -19 27 37 0
8 -15 18 21 0
7 -3 24 26 0
1 11 28 -39 0
9 -14 36 -37 0
2 17 -25 -34 0
3 -15 -18 21 0
2 -5 18 23 0
8 -33 35 38 0
6 15 -21 32 0
8 -4 -6 16 0
2 19 -28 -39 0
2 -8 -12 30 0
7 -6 10 -11 0
3 19 -21 28 0
3 2 8 -31 0
10 -10 11 39 0
7 12 30 -32 0
9 16 -19 27 0
7 -3 -24 -26 0
4 4 -14 16 0
4 14 -27 37 0
8 17 -34 -38 0
2 10 22 24 0
4 -19 27 -28 0
10 4 -14 -29 0
2 -7 -33 -35 0
5 3 -30 -32 0
2 -31 -35 40 0
3 -11 -15 -39 0
3 27 -36 -37 0
9 13 -20 36 0
5 -17 25 -34 0
5 -4 6 14 0
10 12 14 29 0
7 -15 18 -21 0
6 -7 33 -35 0
